PROBLEM NAME: eil51_n17
KNAPSACK DATA TYPE: uncorrelated, similar weights
DIMENSION: 17
NUMBER OF ITEMS: 16
CAPACITY OF KNAPSACK: 1455187
MIN SPEED: 0.1
MAX SPEED: 1
RENTING RATIO: 15.28
EDGE_WEIGHT_TYPE: CEIL_2D
NODE_COORD_SECTION	(INDEX, X, Y):
1	52	64
2	40	30
3	17	63
4	17	33
5	13	13
6	42	57
7	8	52
8	43	67
9	58	27
10	38	46
11	46	10
12	32	22
13	59	15
14	5	64
15	39	10
16	32	39
17	48	28
ITEMS SECTION	(INDEX, PROFIT, WEIGHT, ASSIGNED NODE NUMBER):
1	970	100066	8
2	930	100080	3
3	925	100033	14
4	909	100015	7
5	906	100007	4
6	851	100090	5
7	811	100011	12
8	724	100026	15
9	700	100082	11
10	581	100042	13
11	532	100090	9
12	493	100030	17
13	428	100017	2
14	416	100009	16
15	300	100071	10
16	148	100037	6
